(set-info :source |
 Generated by Alive 0.1
 More info in N. P. Lopes, D. Menendez, S. Nagarakatte, J. Regehr.
 Provably Correct Peephole Optimizations with Alive. In PLDI'15.
|)

(set-info :status unknown)
(declare-fun C () (_ BitVec 63))
(declare-fun %x () (_ BitVec 63))
(assert
 (let (($x43032 (= (bvadd ((_ sign_extend 1) %x) ((_ sign_extend 1) (bvneg C))) ((_ sign_extend 1) (bvadd %x (bvneg C))))))
 (let (($x44454 (and (distinct C (bvshl (_ bv1 63) (bvsub (_ bv63 63) (_ bv1 63)))) true)))
 (let (($x42339 (= (bvsub ((_ sign_extend 1) %x) ((_ sign_extend 1) C)) ((_ sign_extend 1) (bvsub %x C)))))
 (and $x42339 $x44454 (not $x43032))))))
(check-sat)
